z1,z2,z3,nondominated
2,5,9,0
8,1,5,0
4,4,4,0
2,9,5,0
7,8,1,0
5,4,3,0
1,8,6,0
2,6,4,0
7,7,1,0
7,4,2,0
8,2,4,0
8,5,1,0
9,2,5,0
1,6,7,0
7,2,4,0
7,8,1,0
6,7,1,0
3,5,4,0
4,7,2,0
6,9,1,0
2,8,4,0
2,4,8,0
4,6,2,0
4,10,2,0
8,3,3,0
6,1,8,0
7,5,2,0
6,3,4,0
3,3,7,0
1,7,6,0
4,10,2,0
3,8,3,0
6,5,2,0
8,1,8,0
4,7,2,0
8,5,2,0
1,1,1,0
1,1,1,0
1,1,1,0
1,1,1,0
1,1,1,0
1,1,1,0
